instances/shortest_path/discrete_knapsack_uncertainty/nohadani_6_13.kp
28089
107

[4.281532432491516 1.239565441446747 1.9111096865118813 0.3020300870252365 2.3512051384447545 0.15095908027129457 0.09742171385012838 0.583432634900862 0.5516380284075998 1.5725331945749963 2.5188698426655125 0.2218521990602502 1.2056164219719445 1.238514237769478 4.133184804295357 0.5173618413371239 3.9815584750489164 2.486457880298721 1.2849460017286252 1.4406007458155503 4.210882833093459 2.4758462806246544 4.027128549277816 0.1088240427158947]

[9 50 28 17 50 71 3 53 99 84 25 37 66 6 74 18 15 74 63 56 59 69 62 92]
